p cnf 325 1623
c p weight 16 1 0
c p weight -16 1 0
c p weight 17 0 0
c p weight -17 1 0
c p weight 20 0 0
c p weight -20 1 0
c p weight 21 1 0
c p weight -21 1 0
c p weight 24 -0.707106781186547461715008466853760182857513427734375 0
c p weight -24 1 0
c p weight 25 0.70710678118654757273731092936941422522068023681640625 0
c p weight -25 1 0
c p weight 28 0 0
c p weight -28 1 0
c p weight 29 1 0
c p weight -29 1 0
c p weight 32 -1 0
c p weight -32 1 0
c p weight 33 0 0
c p weight -33 1 0
c p weight 38 0 0
c p weight -38 1 0
c p weight 39 1 0
c p weight -39 1 0
c p weight 44 1 0
c p weight -44 1 0
c p weight 45 0 0
c p weight -45 1 0
c p weight 48 0 0
c p weight -48 1 0
c p weight 49 1 0
c p weight -49 1 0
c p weight 52 -0.577350269189625731058868041145615279674530029296875 0
c p weight -52 1 0
c p weight 53 0.8164965809277260344600790631375275552272796630859375 0
c p weight -53 1 0
c p weight 56 0 0
c p weight -56 1 0
c p weight 57 1 0
c p weight -57 1 0
c p weight 60 -1 0
c p weight -60 1 0
c p weight 61 0 0
c p weight -61 1 0
c p weight 66 0 0
c p weight -66 1 0
c p weight 67 1 0
c p weight -67 1 0
c p weight 72 1 0
c p weight -72 1 0
c p weight 73 0 0
c p weight -73 1 0
c p weight 76 0 0
c p weight -76 1 0
c p weight 77 1 0
c p weight -77 1 0
c p weight 80 -0.499999999999999833466546306226518936455249786376953125 0
c p weight -80 1 0
c p weight 81 0.86602540378443870761060452423407696187496185302734375 0
c p weight -81 1 0
c p weight 84 0 0
c p weight -84 1 0
c p weight 85 1 0
c p weight -85 1 0
c p weight 88 -1 0
c p weight -88 1 0
c p weight 89 0 0
c p weight -89 1 0
c p weight 94 0 0
c p weight -94 1 0
c p weight 95 1 0
c p weight -95 1 0
c p weight 100 1 0
c p weight -100 1 0
c p weight 101 0 0
c p weight -101 1 0
c p weight 104 0 0
c p weight -104 1 0
c p weight 105 1 0
c p weight -105 1 0
c p weight 108 -0.447213595499957927703604809721582569181919097900390625 0
c p weight -108 1 0
c p weight 109 0.89442719099991585540720961944316513836383819580078125 0
c p weight -109 1 0
c p weight 112 0 0
c p weight -112 1 0
c p weight 113 1 0
c p weight -113 1 0
c p weight 116 -1 0
c p weight -116 1 0
c p weight 117 0 0
c p weight -117 1 0
c p weight 122 0 0
c p weight -122 1 0
c p weight 123 1 0
c p weight -123 1 0
c p weight 128 1 0
c p weight -128 1 0
c p weight 129 0 0
c p weight -129 1 0
c p weight 132 0 0
c p weight -132 1 0
c p weight 133 1 0
c p weight -133 1 0
c p weight 136 -0.408248290463862850696585837795282714068889617919921875 0
c p weight -136 1 0
c p weight 137 0.91287092917527690172363463716465048491954803466796875 0
c p weight -137 1 0
c p weight 140 0 0
c p weight -140 1 0
c p weight 141 1 0
c p weight -141 1 0
c p weight 144 -1 0
c p weight -144 1 0
c p weight 145 0 0
c p weight -145 1 0
c p weight 150 0 0
c p weight -150 1 0
c p weight 151 1 0
c p weight -151 1 0
c p weight 162 0 0
c p weight -162 1 0
c p weight 163 1 0
c p weight -163 1 0
c p weight 168 1 0
c p weight -168 1 0
c p weight 169 0 0
c p weight -169 1 0
c p weight 172 0 0
c p weight -172 1 0
c p weight 173 1 0
c p weight -173 1 0
c p weight 176 -0.408248290463863072741190762826590798795223236083984375 0
c p weight -176 1 0
c p weight 177 -0.9128709291752767907013321746489964425563812255859375 0
c p weight -177 1 0
c p weight 180 0 0
c p weight -180 1 0
c p weight 181 1 0
c p weight -181 1 0
c p weight 184 -1 0
c p weight -184 1 0
c p weight 185 0 0
c p weight -185 1 0
c p weight 193 0 0
c p weight -193 1 0
c p weight 194 1 0
c p weight -194 1 0
c p weight 199 1 0
c p weight -199 1 0
c p weight 200 0 0
c p weight -200 1 0
c p weight 203 0 0
c p weight -203 1 0
c p weight 204 1 0
c p weight -204 1 0
c p weight 207 -0.447213595499958149748209734752890653908252716064453125 0
c p weight -207 1 0
c p weight 208 -0.89442719099991574438490715692751109600067138671875 0
c p weight -208 1 0
c p weight 211 0 0
c p weight -211 1 0
c p weight 212 1 0
c p weight -212 1 0
c p weight 215 -1 0
c p weight -215 1 0
c p weight 216 0 0
c p weight -216 1 0
c p weight 224 0 0
c p weight -224 1 0
c p weight 225 1 0
c p weight -225 1 0
c p weight 230 1 0
c p weight -230 1 0
c p weight 231 0 0
c p weight -231 1 0
c p weight 234 0 0
c p weight -234 1 0
c p weight 235 1 0
c p weight -235 1 0
c p weight 238 -0.500000000000000444089209850062616169452667236328125 0
c p weight -238 1 0
c p weight 239 -0.86602540378443837454369713668711483478546142578125 0
c p weight -239 1 0
c p weight 242 0 0
c p weight -242 1 0
c p weight 243 1 0
c p weight -243 1 0
c p weight 246 -1 0
c p weight -246 1 0
c p weight 247 0 0
c p weight -247 1 0
c p weight 255 0 0
c p weight -255 1 0
c p weight 256 1 0
c p weight -256 1 0
c p weight 261 1 0
c p weight -261 1 0
c p weight 262 0 0
c p weight -262 1 0
c p weight 265 0 0
c p weight -265 1 0
c p weight 266 1 0
c p weight -266 1 0
c p weight 269 -0.57735026918962562003656557862996123731136322021484375 0
c p weight -269 1 0
c p weight 270 -0.81649658092772614548238152565318159759044647216796875 0
c p weight -270 1 0
c p weight 273 0 0
c p weight -273 1 0
c p weight 274 1 0
c p weight -274 1 0
c p weight 277 -1 0
c p weight -277 1 0
c p weight 278 0 0
c p weight -278 1 0
c p weight 286 0 0
c p weight -286 1 0
c p weight 287 1 0
c p weight -287 1 0
c p weight 292 1 0
c p weight -292 1 0
c p weight 293 0 0
c p weight -293 1 0
c p weight 296 0 0
c p weight -296 1 0
c p weight 297 1 0
c p weight -297 1 0
c p weight 300 -0.7071067811865476837596133918850682675838470458984375 0
c p weight -300 1 0
c p weight 301 -0.707106781186547461715008466853760182857513427734375 0
c p weight -301 1 0
c p weight 304 0 0
c p weight -304 1 0
c p weight 305 1 0
c p weight -305 1 0
c p weight 308 -1 0
c p weight -308 1 0
c p weight 309 0 0
c p weight -309 1 0
c p weight 322 -1 0
c p weight -322 1 0
c p weight 325 0.5 0
325 0
-13 0
-11 0
-9 0
-7 0
-5 0
-3 0
-1 0
14 -13 1 0
14 -13 2 0
-14 13 1 0
-14 13 2 0
14 -15 -13 0
-14 -15 13 0
14 15 13 -1 -2 0
-14 15 -13 -1 -2 0
15 1 -2 0
-15 1 2 0
-16 1 0
15 -16 -2 0
-15 -16 2 0
15 16 -1 2 0
-15 16 -1 -2 0
-17 1 0
15 -17 2 0
-15 -17 -2 0
15 17 -1 -2 0
-15 17 -1 2 0
18 19 -14 0
18 -14 15 0
-18 19 14 0
-18 14 15 0
18 -14 -1 0
-18 14 -1 0
18 -19 14 1 -15 0
-18 -19 -14 1 -15 0
19 -1 15 0
-19 1 15 0
-20 15 0
19 -20 -1 0
-19 -20 1 0
19 20 1 -15 0
-19 20 -1 -15 0
-21 15 0
19 -21 1 0
-19 -21 -1 0
19 21 -1 -15 0
-19 21 1 -15 0
22 -18 19 0
22 -18 15 0
-22 18 19 0
-22 18 15 0
22 -23 -18 0
-22 -23 18 0
22 23 18 -19 -15 0
-22 23 -18 -19 -15 0
23 19 -15 0
-23 19 15 0
-24 19 0
23 -24 -15 0
-23 -24 15 0
23 24 -19 15 0
-23 24 -19 -15 0
-25 19 0
23 -25 15 0
-23 -25 -15 0
23 25 -19 -15 0
-23 25 -19 15 0
26 27 -22 0
26 -22 23 0
-26 27 22 0
-26 22 23 0
26 -22 -19 0
-26 22 -19 0
26 -27 22 19 -23 0
-26 -27 -22 19 -23 0
27 -19 23 0
-27 19 23 0
-28 23 0
27 -28 -19 0
-27 -28 19 0
27 28 19 -23 0
-27 28 -19 -23 0
-29 23 0
27 -29 19 0
-27 -29 -19 0
27 29 -19 -23 0
-27 29 19 -23 0
30 -26 27 0
30 -26 23 0
-30 26 27 0
-30 26 23 0
30 -31 -26 0
-30 -31 26 0
30 31 26 -27 -23 0
-30 31 -26 -27 -23 0
31 27 -23 0
-31 27 23 0
-32 27 0
31 -32 -23 0
-31 -32 23 0
31 32 -27 23 0
-31 32 -27 -23 0
-33 27 0
31 -33 23 0
-31 -33 -23 0
31 33 -27 -23 0
-31 33 -27 23 0
34 -30 27 0
34 -30 31 0
-34 30 27 0
-34 30 31 0
34 30 -27 -31 0
-34 -30 -27 -31 0
35 27 -31 0
35 -27 31 0
-35 27 31 0
-35 -27 -31 0
36 37 -34 0
36 -34 35 0
-36 37 34 0
-36 34 35 0
36 -34 -27 0
-36 34 -27 0
36 -37 34 27 -35 0
-36 -37 -34 27 -35 0
37 -27 35 0
-37 27 35 0
-38 35 0
37 -38 -27 0
-37 -38 27 0
37 38 27 -35 0
-37 38 -27 -35 0
-39 35 0
37 -39 27 0
-37 -39 -27 0
37 39 -27 -35 0
-37 39 27 -35 0
40 -36 37 0
40 -36 35 0
-40 36 37 0
-40 36 35 0
40 36 -37 -35 0
-40 -36 -37 -35 0
41 37 -35 0
41 -37 35 0
-41 37 35 0
-41 -37 -35 0
42 -40 3 0
42 -40 4 0
-42 40 3 0
-42 40 4 0
42 -43 -40 0
-42 -43 40 0
42 43 40 -3 -4 0
-42 43 -40 -3 -4 0
43 3 -4 0
-43 3 4 0
-44 3 0
43 -44 -4 0
-43 -44 4 0
43 44 -3 4 0
-43 44 -3 -4 0
-45 3 0
43 -45 4 0
-43 -45 -4 0
43 45 -3 -4 0
-43 45 -3 4 0
46 47 -42 0
46 -42 43 0
-46 47 42 0
-46 42 43 0
46 -42 -3 0
-46 42 -3 0
46 -47 42 3 -43 0
-46 -47 -42 3 -43 0
47 -3 43 0
-47 3 43 0
-48 43 0
47 -48 -3 0
-47 -48 3 0
47 48 3 -43 0
-47 48 -3 -43 0
-49 43 0
47 -49 3 0
-47 -49 -3 0
47 49 -3 -43 0
-47 49 3 -43 0
50 -46 47 0
50 -46 43 0
-50 46 47 0
-50 46 43 0
50 -51 -46 0
-50 -51 46 0
50 51 46 -47 -43 0
-50 51 -46 -47 -43 0
51 47 -43 0
-51 47 43 0
-52 47 0
51 -52 -43 0
-51 -52 43 0
51 52 -47 43 0
-51 52 -47 -43 0
-53 47 0
51 -53 43 0
-51 -53 -43 0
51 53 -47 -43 0
-51 53 -47 43 0
54 55 -50 0
54 -50 51 0
-54 55 50 0
-54 50 51 0
54 -50 -47 0
-54 50 -47 0
54 -55 50 47 -51 0
-54 -55 -50 47 -51 0
55 -47 51 0
-55 47 51 0
-56 51 0
55 -56 -47 0
-55 -56 47 0
55 56 47 -51 0
-55 56 -47 -51 0
-57 51 0
55 -57 47 0
-55 -57 -47 0
55 57 -47 -51 0
-55 57 47 -51 0
58 -54 55 0
58 -54 51 0
-58 54 55 0
-58 54 51 0
58 -59 -54 0
-58 -59 54 0
58 59 54 -55 -51 0
-58 59 -54 -55 -51 0
59 55 -51 0
-59 55 51 0
-60 55 0
59 -60 -51 0
-59 -60 51 0
59 60 -55 51 0
-59 60 -55 -51 0
-61 55 0
59 -61 51 0
-59 -61 -51 0
59 61 -55 -51 0
-59 61 -55 51 0
62 -58 55 0
62 -58 59 0
-62 58 55 0
-62 58 59 0
62 58 -55 -59 0
-62 -58 -55 -59 0
63 55 -59 0
63 -55 59 0
-63 55 59 0
-63 -55 -59 0
64 65 -62 0
64 -62 63 0
-64 65 62 0
-64 62 63 0
64 -62 -55 0
-64 62 -55 0
64 -65 62 55 -63 0
-64 -65 -62 55 -63 0
65 -55 63 0
-65 55 63 0
-66 63 0
65 -66 -55 0
-65 -66 55 0
65 66 55 -63 0
-65 66 -55 -63 0
-67 63 0
65 -67 55 0
-65 -67 -55 0
65 67 -55 -63 0
-65 67 55 -63 0
68 -64 65 0
68 -64 63 0
-68 64 65 0
-68 64 63 0
68 64 -65 -63 0
-68 -64 -65 -63 0
69 65 -63 0
69 -65 63 0
-69 65 63 0
-69 -65 -63 0
70 -68 5 0
70 -68 6 0
-70 68 5 0
-70 68 6 0
70 -71 -68 0
-70 -71 68 0
70 71 68 -5 -6 0
-70 71 -68 -5 -6 0
71 5 -6 0
-71 5 6 0
-72 5 0
71 -72 -6 0
-71 -72 6 0
71 72 -5 6 0
-71 72 -5 -6 0
-73 5 0
71 -73 6 0
-71 -73 -6 0
71 73 -5 -6 0
-71 73 -5 6 0
74 75 -70 0
74 -70 71 0
-74 75 70 0
-74 70 71 0
74 -70 -5 0
-74 70 -5 0
74 -75 70 5 -71 0
-74 -75 -70 5 -71 0
75 -5 71 0
-75 5 71 0
-76 71 0
75 -76 -5 0
-75 -76 5 0
75 76 5 -71 0
-75 76 -5 -71 0
-77 71 0
75 -77 5 0
-75 -77 -5 0
75 77 -5 -71 0
-75 77 5 -71 0
78 -74 75 0
78 -74 71 0
-78 74 75 0
-78 74 71 0
78 -79 -74 0
-78 -79 74 0
78 79 74 -75 -71 0
-78 79 -74 -75 -71 0
79 75 -71 0
-79 75 71 0
-80 75 0
79 -80 -71 0
-79 -80 71 0
79 80 -75 71 0
-79 80 -75 -71 0
-81 75 0
79 -81 71 0
-79 -81 -71 0
79 81 -75 -71 0
-79 81 -75 71 0
82 83 -78 0
82 -78 79 0
-82 83 78 0
-82 78 79 0
82 -78 -75 0
-82 78 -75 0
82 -83 78 75 -79 0
-82 -83 -78 75 -79 0
83 -75 79 0
-83 75 79 0
-84 79 0
83 -84 -75 0
-83 -84 75 0
83 84 75 -79 0
-83 84 -75 -79 0
-85 79 0
83 -85 75 0
-83 -85 -75 0
83 85 -75 -79 0
-83 85 75 -79 0
86 -82 83 0
86 -82 79 0
-86 82 83 0
-86 82 79 0
86 -87 -82 0
-86 -87 82 0
86 87 82 -83 -79 0
-86 87 -82 -83 -79 0
87 83 -79 0
-87 83 79 0
-88 83 0
87 -88 -79 0
-87 -88 79 0
87 88 -83 79 0
-87 88 -83 -79 0
-89 83 0
87 -89 79 0
-87 -89 -79 0
87 89 -83 -79 0
-87 89 -83 79 0
90 -86 83 0
90 -86 87 0
-90 86 83 0
-90 86 87 0
90 86 -83 -87 0
-90 -86 -83 -87 0
91 83 -87 0
91 -83 87 0
-91 83 87 0
-91 -83 -87 0
92 93 -90 0
92 -90 91 0
-92 93 90 0
-92 90 91 0
92 -90 -83 0
-92 90 -83 0
92 -93 90 83 -91 0
-92 -93 -90 83 -91 0
93 -83 91 0
-93 83 91 0
-94 91 0
93 -94 -83 0
-93 -94 83 0
93 94 83 -91 0
-93 94 -83 -91 0
-95 91 0
93 -95 83 0
-93 -95 -83 0
93 95 -83 -91 0
-93 95 83 -91 0
96 -92 93 0
96 -92 91 0
-96 92 93 0
-96 92 91 0
96 92 -93 -91 0
-96 -92 -93 -91 0
97 93 -91 0
97 -93 91 0
-97 93 91 0
-97 -93 -91 0
98 -96 7 0
98 -96 8 0
-98 96 7 0
-98 96 8 0
98 -99 -96 0
-98 -99 96 0
98 99 96 -7 -8 0
-98 99 -96 -7 -8 0
99 7 -8 0
-99 7 8 0
-100 7 0
99 -100 -8 0
-99 -100 8 0
99 100 -7 8 0
-99 100 -7 -8 0
-101 7 0
99 -101 8 0
-99 -101 -8 0
99 101 -7 -8 0
-99 101 -7 8 0
102 103 -98 0
102 -98 99 0
-102 103 98 0
-102 98 99 0
102 -98 -7 0
-102 98 -7 0
102 -103 98 7 -99 0
-102 -103 -98 7 -99 0
103 -7 99 0
-103 7 99 0
-104 99 0
103 -104 -7 0
-103 -104 7 0
103 104 7 -99 0
-103 104 -7 -99 0
-105 99 0
103 -105 7 0
-103 -105 -7 0
103 105 -7 -99 0
-103 105 7 -99 0
106 -102 103 0
106 -102 99 0
-106 102 103 0
-106 102 99 0
106 -107 -102 0
-106 -107 102 0
106 107 102 -103 -99 0
-106 107 -102 -103 -99 0
107 103 -99 0
-107 103 99 0
-108 103 0
107 -108 -99 0
-107 -108 99 0
107 108 -103 99 0
-107 108 -103 -99 0
-109 103 0
107 -109 99 0
-107 -109 -99 0
107 109 -103 -99 0
-107 109 -103 99 0
110 111 -106 0
110 -106 107 0
-110 111 106 0
-110 106 107 0
110 -106 -103 0
-110 106 -103 0
110 -111 106 103 -107 0
-110 -111 -106 103 -107 0
111 -103 107 0
-111 103 107 0
-112 107 0
111 -112 -103 0
-111 -112 103 0
111 112 103 -107 0
-111 112 -103 -107 0
-113 107 0
111 -113 103 0
-111 -113 -103 0
111 113 -103 -107 0
-111 113 103 -107 0
114 -110 111 0
114 -110 107 0
-114 110 111 0
-114 110 107 0
114 -115 -110 0
-114 -115 110 0
114 115 110 -111 -107 0
-114 115 -110 -111 -107 0
115 111 -107 0
-115 111 107 0
-116 111 0
115 -116 -107 0
-115 -116 107 0
115 116 -111 107 0
-115 116 -111 -107 0
-117 111 0
115 -117 107 0
-115 -117 -107 0
115 117 -111 -107 0
-115 117 -111 107 0
118 -114 111 0
118 -114 115 0
-118 114 111 0
-118 114 115 0
118 114 -111 -115 0
-118 -114 -111 -115 0
119 111 -115 0
119 -111 115 0
-119 111 115 0
-119 -111 -115 0
120 121 -118 0
120 -118 119 0
-120 121 118 0
-120 118 119 0
120 -118 -111 0
-120 118 -111 0
120 -121 118 111 -119 0
-120 -121 -118 111 -119 0
121 -111 119 0
-121 111 119 0
-122 119 0
121 -122 -111 0
-121 -122 111 0
121 122 111 -119 0
-121 122 -111 -119 0
-123 119 0
121 -123 111 0
-121 -123 -111 0
121 123 -111 -119 0
-121 123 111 -119 0
124 -120 121 0
124 -120 119 0
-124 120 121 0
-124 120 119 0
124 120 -121 -119 0
-124 -120 -121 -119 0
125 121 -119 0
125 -121 119 0
-125 121 119 0
-125 -121 -119 0
126 -124 9 0
126 -124 10 0
-126 124 9 0
-126 124 10 0
126 -127 -124 0
-126 -127 124 0
126 127 124 -9 -10 0
-126 127 -124 -9 -10 0
127 9 -10 0
-127 9 10 0
-128 9 0
127 -128 -10 0
-127 -128 10 0
127 128 -9 10 0
-127 128 -9 -10 0
-129 9 0
127 -129 10 0
-127 -129 -10 0
127 129 -9 -10 0
-127 129 -9 10 0
130 131 -126 0
130 -126 127 0
-130 131 126 0
-130 126 127 0
130 -126 -9 0
-130 126 -9 0
130 -131 126 9 -127 0
-130 -131 -126 9 -127 0
131 -9 127 0
-131 9 127 0
-132 127 0
131 -132 -9 0
-131 -132 9 0
131 132 9 -127 0
-131 132 -9 -127 0
-133 127 0
131 -133 9 0
-131 -133 -9 0
131 133 -9 -127 0
-131 133 9 -127 0
134 -130 131 0
134 -130 127 0
-134 130 131 0
-134 130 127 0
134 -135 -130 0
-134 -135 130 0
134 135 130 -131 -127 0
-134 135 -130 -131 -127 0
135 131 -127 0
-135 131 127 0
-136 131 0
135 -136 -127 0
-135 -136 127 0
135 136 -131 127 0
-135 136 -131 -127 0
-137 131 0
135 -137 127 0
-135 -137 -127 0
135 137 -131 -127 0
-135 137 -131 127 0
138 139 -134 0
138 -134 135 0
-138 139 134 0
-138 134 135 0
138 -134 -131 0
-138 134 -131 0
138 -139 134 131 -135 0
-138 -139 -134 131 -135 0
139 -131 135 0
-139 131 135 0
-140 135 0
139 -140 -131 0
-139 -140 131 0
139 140 131 -135 0
-139 140 -131 -135 0
-141 135 0
139 -141 131 0
-139 -141 -131 0
139 141 -131 -135 0
-139 141 131 -135 0
142 -138 139 0
142 -138 135 0
-142 138 139 0
-142 138 135 0
142 -143 -138 0
-142 -143 138 0
142 143 138 -139 -135 0
-142 143 -138 -139 -135 0
143 139 -135 0
-143 139 135 0
-144 139 0
143 -144 -135 0
-143 -144 135 0
143 144 -139 135 0
-143 144 -139 -135 0
-145 139 0
143 -145 135 0
-143 -145 -135 0
143 145 -139 -135 0
-143 145 -139 135 0
146 -142 139 0
146 -142 143 0
-146 142 139 0
-146 142 143 0
146 142 -139 -143 0
-146 -142 -139 -143 0
147 139 -143 0
147 -139 143 0
-147 139 143 0
-147 -139 -143 0
148 149 -146 0
148 -146 147 0
-148 149 146 0
-148 146 147 0
148 -146 -139 0
-148 146 -139 0
148 -149 146 139 -147 0
-148 -149 -146 139 -147 0
149 -139 147 0
-149 139 147 0
-150 147 0
149 -150 -139 0
-149 -150 139 0
149 150 139 -147 0
-149 150 -139 -147 0
-151 147 0
149 -151 139 0
-149 -151 -139 0
149 151 -139 -147 0
-149 151 139 -147 0
152 -148 149 0
152 -148 147 0
-152 148 149 0
-152 148 147 0
152 148 -149 -147 0
-152 -148 -149 -147 0
153 149 -147 0
153 -149 147 0
-153 149 147 0
-153 -149 -147 0
154 152 -12 0
154 -152 12 0
-154 152 12 0
-154 -152 -12 0
155 -154 11 0
155 -154 153 0
-155 154 11 0
-155 154 153 0
155 -154 149 -12 0
155 -154 -149 12 0
-155 154 149 -12 0
-155 154 -149 12 0
155 154 -11 149 12 -153 0
155 154 -11 -149 -12 -153 0
-155 -154 -11 149 12 -153 0
-155 -154 -11 -149 -12 -153 0
157 11 -149 0
157 -11 149 0
-157 11 149 0
-157 -11 -149 0
156 12 -153 0
156 -12 153 0
-156 12 153 0
-156 -12 -153 0
158 -155 157 0
158 -155 153 0
-158 155 157 0
-158 155 153 0
158 155 -157 -153 0
-158 -155 -157 -153 0
159 157 -153 0
159 -157 153 0
-159 157 153 0
-159 -157 -153 0
160 161 -158 0
160 -158 159 0
-160 161 158 0
-160 158 159 0
160 -158 -157 0
-160 158 -157 0
160 -161 158 157 -159 0
-160 -161 -158 157 -159 0
161 -157 159 0
-161 157 159 0
-162 159 0
161 -162 -157 0
-161 -162 157 0
161 162 157 -159 0
-161 162 -157 -159 0
-163 159 0
161 -163 157 0
-161 -163 -157 0
161 163 -157 -159 0
-161 163 157 -159 0
164 -160 161 0
164 -160 159 0
-164 160 161 0
-164 160 159 0
164 160 -161 -159 0
-164 -160 -161 -159 0
165 161 -159 0
165 -161 159 0
-165 161 159 0
-165 -161 -159 0
166 -164 161 0
166 -164 165 0
-166 164 161 0
-166 164 165 0
166 -167 -164 0
-166 -167 164 0
166 167 164 -161 -165 0
-166 167 -164 -161 -165 0
167 161 -165 0
-167 161 165 0
-168 161 0
167 -168 -165 0
-167 -168 165 0
167 168 -161 165 0
-167 168 -161 -165 0
-169 161 0
167 -169 165 0
-167 -169 -165 0
167 169 -161 -165 0
-167 169 -161 165 0
170 171 -166 0
170 -166 167 0
-170 171 166 0
-170 166 167 0
170 -166 -161 0
-170 166 -161 0
170 -171 166 161 -167 0
-170 -171 -166 161 -167 0
171 -161 167 0
-171 161 167 0
-172 167 0
171 -172 -161 0
-171 -172 161 0
171 172 161 -167 0
-171 172 -161 -167 0
-173 167 0
171 -173 161 0
-171 -173 -161 0
171 173 -161 -167 0
-171 173 161 -167 0
174 -170 171 0
174 -170 167 0
-174 170 171 0
-174 170 167 0
174 -175 -170 0
-174 -175 170 0
174 175 170 -171 -167 0
-174 175 -170 -171 -167 0
175 171 -167 0
-175 171 167 0
-176 171 0
175 -176 -167 0
-175 -176 167 0
175 176 -171 167 0
-175 176 -171 -167 0
-177 171 0
175 -177 167 0
-175 -177 -167 0
175 177 -171 -167 0
-175 177 -171 167 0
178 179 -174 0
178 -174 175 0
-178 179 174 0
-178 174 175 0
178 -174 -171 0
-178 174 -171 0
178 -179 174 171 -175 0
-178 -179 -174 171 -175 0
179 -171 175 0
-179 171 175 0
-180 175 0
179 -180 -171 0
-179 -180 171 0
179 180 171 -175 0
-179 180 -171 -175 0
-181 175 0
179 -181 171 0
-179 -181 -171 0
179 181 -171 -175 0
-179 181 171 -175 0
182 -178 179 0
182 -178 175 0
-182 178 179 0
-182 178 175 0
182 -183 -178 0
-182 -183 178 0
182 183 178 -179 -175 0
-182 183 -178 -179 -175 0
183 179 -175 0
-183 179 175 0
-184 179 0
183 -184 -175 0
-183 -184 175 0
183 184 -179 175 0
-183 184 -179 -175 0
-185 179 0
183 -185 175 0
-183 -185 -175 0
183 185 -179 -175 0
-183 185 -179 175 0
186 -182 179 0
186 -182 125 0
-186 182 179 0
-186 182 125 0
186 -182 121 -183 0
186 -182 -121 183 0
-186 182 121 -183 0
-186 182 -121 183 0
186 182 -179 121 183 -125 0
186 182 -179 -121 -183 -125 0
-186 -182 -179 121 183 -125 0
-186 -182 -179 -121 -183 -125 0
188 179 -121 0
188 -179 121 0
-188 179 121 0
-188 -179 -121 0
187 183 -125 0
187 -183 125 0
-187 183 125 0
-187 -183 -125 0
189 -186 188 0
189 -186 125 0
-189 186 188 0
-189 186 125 0
189 186 -188 -125 0
-189 -186 -188 -125 0
190 188 -125 0
190 -188 125 0
-190 188 125 0
-190 -188 -125 0
191 192 -189 0
191 -189 190 0
-191 192 189 0
-191 189 190 0
191 -189 -188 0
-191 189 -188 0
191 -192 189 188 -190 0
-191 -192 -189 188 -190 0
192 -188 190 0
-192 188 190 0
-193 190 0
192 -193 -188 0
-192 -193 188 0
192 193 188 -190 0
-192 193 -188 -190 0
-194 190 0
192 -194 188 0
-192 -194 -188 0
192 194 -188 -190 0
-192 194 188 -190 0
195 -191 192 0
195 -191 190 0
-195 191 192 0
-195 191 190 0
195 191 -192 -190 0
-195 -191 -192 -190 0
196 192 -190 0
196 -192 190 0
-196 192 190 0
-196 -192 -190 0
197 -195 192 0
197 -195 196 0
-197 195 192 0
-197 195 196 0
197 -198 -195 0
-197 -198 195 0
197 198 195 -192 -196 0
-197 198 -195 -192 -196 0
198 192 -196 0
-198 192 196 0
-199 192 0
198 -199 -196 0
-198 -199 196 0
198 199 -192 196 0
-198 199 -192 -196 0
-200 192 0
198 -200 196 0
-198 -200 -196 0
198 200 -192 -196 0
-198 200 -192 196 0
201 202 -197 0
201 -197 198 0
-201 202 197 0
-201 197 198 0
201 -197 -192 0
-201 197 -192 0
201 -202 197 192 -198 0
-201 -202 -197 192 -198 0
202 -192 198 0
-202 192 198 0
-203 198 0
202 -203 -192 0
-202 -203 192 0
202 203 192 -198 0
-202 203 -192 -198 0
-204 198 0
202 -204 192 0
-202 -204 -192 0
202 204 -192 -198 0
-202 204 192 -198 0
205 -201 202 0
205 -201 198 0
-205 201 202 0
-205 201 198 0
205 -206 -201 0
-205 -206 201 0
205 206 201 -202 -198 0
-205 206 -201 -202 -198 0
206 202 -198 0
-206 202 198 0
-207 202 0
206 -207 -198 0
-206 -207 198 0
206 207 -202 198 0
-206 207 -202 -198 0
-208 202 0
206 -208 198 0
-206 -208 -198 0
206 208 -202 -198 0
-206 208 -202 198 0
209 210 -205 0
209 -205 206 0
-209 210 205 0
-209 205 206 0
209 -205 -202 0
-209 205 -202 0
209 -210 205 202 -206 0
-209 -210 -205 202 -206 0
210 -202 206 0
-210 202 206 0
-211 206 0
210 -211 -202 0
-210 -211 202 0
210 211 202 -206 0
-210 211 -202 -206 0
-212 206 0
210 -212 202 0
-210 -212 -202 0
210 212 -202 -206 0
-210 212 202 -206 0
213 -209 210 0
213 -209 206 0
-213 209 210 0
-213 209 206 0
213 -214 -209 0
-213 -214 209 0
213 214 209 -210 -206 0
-213 214 -209 -210 -206 0
214 210 -206 0
-214 210 206 0
-215 210 0
214 -215 -206 0
-214 -215 206 0
214 215 -210 206 0
-214 215 -210 -206 0
-216 210 0
214 -216 206 0
-214 -216 -206 0
214 216 -210 -206 0
-214 216 -210 206 0
217 -213 210 0
217 -213 97 0
-217 213 210 0
-217 213 97 0
217 -213 93 -214 0
217 -213 -93 214 0
-217 213 93 -214 0
-217 213 -93 214 0
217 213 -210 93 214 -97 0
217 213 -210 -93 -214 -97 0
-217 -213 -210 93 214 -97 0
-217 -213 -210 -93 -214 -97 0
219 210 -93 0
219 -210 93 0
-219 210 93 0
-219 -210 -93 0
218 214 -97 0
218 -214 97 0
-218 214 97 0
-218 -214 -97 0
220 -217 219 0
220 -217 97 0
-220 217 219 0
-220 217 97 0
220 217 -219 -97 0
-220 -217 -219 -97 0
221 219 -97 0
221 -219 97 0
-221 219 97 0
-221 -219 -97 0
222 223 -220 0
222 -220 221 0
-222 223 220 0
-222 220 221 0
222 -220 -219 0
-222 220 -219 0
222 -223 220 219 -221 0
-222 -223 -220 219 -221 0
223 -219 221 0
-223 219 221 0
-224 221 0
223 -224 -219 0
-223 -224 219 0
223 224 219 -221 0
-223 224 -219 -221 0
-225 221 0
223 -225 219 0
-223 -225 -219 0
223 225 -219 -221 0
-223 225 219 -221 0
226 -222 223 0
226 -222 221 0
-226 222 223 0
-226 222 221 0
226 222 -223 -221 0
-226 -222 -223 -221 0
227 223 -221 0
227 -223 221 0
-227 223 221 0
-227 -223 -221 0
228 -226 223 0
228 -226 227 0
-228 226 223 0
-228 226 227 0
228 -229 -226 0
-228 -229 226 0
228 229 226 -223 -227 0
-228 229 -226 -223 -227 0
229 223 -227 0
-229 223 227 0
-230 223 0
229 -230 -227 0
-229 -230 227 0
229 230 -223 227 0
-229 230 -223 -227 0
-231 223 0
229 -231 227 0
-229 -231 -227 0
229 231 -223 -227 0
-229 231 -223 227 0
232 233 -228 0
232 -228 229 0
-232 233 228 0
-232 228 229 0
232 -228 -223 0
-232 228 -223 0
232 -233 228 223 -229 0
-232 -233 -228 223 -229 0
233 -223 229 0
-233 223 229 0
-234 229 0
233 -234 -223 0
-233 -234 223 0
233 234 223 -229 0
-233 234 -223 -229 0
-235 229 0
233 -235 223 0
-233 -235 -223 0
233 235 -223 -229 0
-233 235 223 -229 0
236 -232 233 0
236 -232 229 0
-236 232 233 0
-236 232 229 0
236 -237 -232 0
-236 -237 232 0
236 237 232 -233 -229 0
-236 237 -232 -233 -229 0
237 233 -229 0
-237 233 229 0
-238 233 0
237 -238 -229 0
-237 -238 229 0
237 238 -233 229 0
-237 238 -233 -229 0
-239 233 0
237 -239 229 0
-237 -239 -229 0
237 239 -233 -229 0
-237 239 -233 229 0
240 241 -236 0
240 -236 237 0
-240 241 236 0
-240 236 237 0
240 -236 -233 0
-240 236 -233 0
240 -241 236 233 -237 0
-240 -241 -236 233 -237 0
241 -233 237 0
-241 233 237 0
-242 237 0
241 -242 -233 0
-241 -242 233 0
241 242 233 -237 0
-241 242 -233 -237 0
-243 237 0
241 -243 233 0
-241 -243 -233 0
241 243 -233 -237 0
-241 243 233 -237 0
244 -240 241 0
244 -240 237 0
-244 240 241 0
-244 240 237 0
244 -245 -240 0
-244 -245 240 0
244 245 240 -241 -237 0
-244 245 -240 -241 -237 0
245 241 -237 0
-245 241 237 0
-246 241 0
245 -246 -237 0
-245 -246 237 0
245 246 -241 237 0
-245 246 -241 -237 0
-247 241 0
245 -247 237 0
-245 -247 -237 0
245 247 -241 -237 0
-245 247 -241 237 0
248 -244 241 0
248 -244 69 0
-248 244 241 0
-248 244 69 0
248 -244 65 -245 0
248 -244 -65 245 0
-248 244 65 -245 0
-248 244 -65 245 0
248 244 -241 65 245 -69 0
248 244 -241 -65 -245 -69 0
-248 -244 -241 65 245 -69 0
-248 -244 -241 -65 -245 -69 0
250 241 -65 0
250 -241 65 0
-250 241 65 0
-250 -241 -65 0
249 245 -69 0
249 -245 69 0
-249 245 69 0
-249 -245 -69 0
251 -248 250 0
251 -248 69 0
-251 248 250 0
-251 248 69 0
251 248 -250 -69 0
-251 -248 -250 -69 0
252 250 -69 0
252 -250 69 0
-252 250 69 0
-252 -250 -69 0
253 254 -251 0
253 -251 252 0
-253 254 251 0
-253 251 252 0
253 -251 -250 0
-253 251 -250 0
253 -254 251 250 -252 0
-253 -254 -251 250 -252 0
254 -250 252 0
-254 250 252 0
-255 252 0
254 -255 -250 0
-254 -255 250 0
254 255 250 -252 0
-254 255 -250 -252 0
-256 252 0
254 -256 250 0
-254 -256 -250 0
254 256 -250 -252 0
-254 256 250 -252 0
257 -253 254 0
257 -253 252 0
-257 253 254 0
-257 253 252 0
257 253 -254 -252 0
-257 -253 -254 -252 0
258 254 -252 0
258 -254 252 0
-258 254 252 0
-258 -254 -252 0
259 -257 254 0
259 -257 258 0
-259 257 254 0
-259 257 258 0
259 -260 -257 0
-259 -260 257 0
259 260 257 -254 -258 0
-259 260 -257 -254 -258 0
260 254 -258 0
-260 254 258 0
-261 254 0
260 -261 -258 0
-260 -261 258 0
260 261 -254 258 0
-260 261 -254 -258 0
-262 254 0
260 -262 258 0
-260 -262 -258 0
260 262 -254 -258 0
-260 262 -254 258 0
263 264 -259 0
263 -259 260 0
-263 264 259 0
-263 259 260 0
263 -259 -254 0
-263 259 -254 0
263 -264 259 254 -260 0
-263 -264 -259 254 -260 0
264 -254 260 0
-264 254 260 0
-265 260 0
264 -265 -254 0
-264 -265 254 0
264 265 254 -260 0
-264 265 -254 -260 0
-266 260 0
264 -266 254 0
-264 -266 -254 0
264 266 -254 -260 0
-264 266 254 -260 0
267 -263 264 0
267 -263 260 0
-267 263 264 0
-267 263 260 0
267 -268 -263 0
-267 -268 263 0
267 268 263 -264 -260 0
-267 268 -263 -264 -260 0
268 264 -260 0
-268 264 260 0
-269 264 0
268 -269 -260 0
-268 -269 260 0
268 269 -264 260 0
-268 269 -264 -260 0
-270 264 0
268 -270 260 0
-268 -270 -260 0
268 270 -264 -260 0
-268 270 -264 260 0
271 272 -267 0
271 -267 268 0
-271 272 267 0
-271 267 268 0
271 -267 -264 0
-271 267 -264 0
271 -272 267 264 -268 0
-271 -272 -267 264 -268 0
272 -264 268 0
-272 264 268 0
-273 268 0
272 -273 -264 0
-272 -273 264 0
272 273 264 -268 0
-272 273 -264 -268 0
-274 268 0
272 -274 264 0
-272 -274 -264 0
272 274 -264 -268 0
-272 274 264 -268 0
275 -271 272 0
275 -271 268 0
-275 271 272 0
-275 271 268 0
275 -276 -271 0
-275 -276 271 0
275 276 271 -272 -268 0
-275 276 -271 -272 -268 0
276 272 -268 0
-276 272 268 0
-277 272 0
276 -277 -268 0
-276 -277 268 0
276 277 -272 268 0
-276 277 -272 -268 0
-278 272 0
276 -278 268 0
-276 -278 -268 0
276 278 -272 -268 0
-276 278 -272 268 0
279 -275 272 0
279 -275 41 0
-279 275 272 0
-279 275 41 0
279 -275 37 -276 0
279 -275 -37 276 0
-279 275 37 -276 0
-279 275 -37 276 0
279 275 -272 37 276 -41 0
279 275 -272 -37 -276 -41 0
-279 -275 -272 37 276 -41 0
-279 -275 -272 -37 -276 -41 0
281 272 -37 0
281 -272 37 0
-281 272 37 0
-281 -272 -37 0
280 276 -41 0
280 -276 41 0
-280 276 41 0
-280 -276 -41 0
282 -279 281 0
282 -279 41 0
-282 279 281 0
-282 279 41 0
282 279 -281 -41 0
-282 -279 -281 -41 0
283 281 -41 0
283 -281 41 0
-283 281 41 0
-283 -281 -41 0
284 285 -282 0
284 -282 283 0
-284 285 282 0
-284 282 283 0
284 -282 -281 0
-284 282 -281 0
284 -285 282 281 -283 0
-284 -285 -282 281 -283 0
285 -281 283 0
-285 281 283 0
-286 283 0
285 -286 -281 0
-285 -286 281 0
285 286 281 -283 0
-285 286 -281 -283 0
-287 283 0
285 -287 281 0
-285 -287 -281 0
285 287 -281 -283 0
-285 287 281 -283 0
288 -284 285 0
288 -284 283 0
-288 284 285 0
-288 284 283 0
288 284 -285 -283 0
-288 -284 -285 -283 0
289 285 -283 0
289 -285 283 0
-289 285 283 0
-289 -285 -283 0
290 -288 285 0
290 -288 289 0
-290 288 285 0
-290 288 289 0
290 -291 -288 0
-290 -291 288 0
290 291 288 -285 -289 0
-290 291 -288 -285 -289 0
291 285 -289 0
-291 285 289 0
-292 285 0
291 -292 -289 0
-291 -292 289 0
291 292 -285 289 0
-291 292 -285 -289 0
-293 285 0
291 -293 289 0
-291 -293 -289 0
291 293 -285 -289 0
-291 293 -285 289 0
294 295 -290 0
294 -290 291 0
-294 295 290 0
-294 290 291 0
294 -290 -285 0
-294 290 -285 0
294 -295 290 285 -291 0
-294 -295 -290 285 -291 0
295 -285 291 0
-295 285 291 0
-296 291 0
295 -296 -285 0
-295 -296 285 0
295 296 285 -291 0
-295 296 -285 -291 0
-297 291 0
295 -297 285 0
-295 -297 -285 0
295 297 -285 -291 0
-295 297 285 -291 0
298 -294 295 0
298 -294 291 0
-298 294 295 0
-298 294 291 0
298 -299 -294 0
-298 -299 294 0
298 299 294 -295 -291 0
-298 299 -294 -295 -291 0
299 295 -291 0
-299 295 291 0
-300 295 0
299 -300 -291 0
-299 -300 291 0
299 300 -295 291 0
-299 300 -295 -291 0
-301 295 0
299 -301 291 0
-299 -301 -291 0
299 301 -295 -291 0
-299 301 -295 291 0
302 303 -298 0
302 -298 299 0
-302 303 298 0
-302 298 299 0
302 -298 -295 0
-302 298 -295 0
302 -303 298 295 -299 0
-302 -303 -298 295 -299 0
303 -295 299 0
-303 295 299 0
-304 299 0
303 -304 -295 0
-303 -304 295 0
303 304 295 -299 0
-303 304 -295 -299 0
-305 299 0
303 -305 295 0
-303 -305 -295 0
303 305 -295 -299 0
-303 305 295 -299 0
306 -302 303 0
306 -302 299 0
-306 302 303 0
-306 302 299 0
306 -307 -302 0
-306 -307 302 0
306 307 302 -303 -299 0
-306 307 -302 -303 -299 0
307 303 -299 0
-307 303 299 0
-308 303 0
307 -308 -299 0
-307 -308 299 0
307 308 -303 299 0
-307 308 -303 -299 0
-309 303 0
307 -309 299 0
-307 -309 -299 0
307 309 -303 -299 0
-307 309 -303 299 0
310 -306 179 0
310 -306 156 0
-310 306 179 0
-310 306 156 0
310 -306 11 -187 0
310 -306 -11 187 0
-310 306 11 -187 0
-310 306 -11 187 0
310 306 -179 11 187 -156 0
310 306 -179 -11 -187 -156 0
-310 -306 -179 11 187 -156 0
-310 -306 -179 -11 -187 -156 0
312 179 -11 0
312 -179 11 0
-312 179 11 0
-312 -179 -11 0
311 187 -156 0
311 -187 156 0
-311 187 156 0
-311 -187 -156 0
313 -310 210 0
313 -310 311 0
-313 310 210 0
-313 310 311 0
313 -310 179 -218 0
313 -310 -179 218 0
-313 310 179 -218 0
-313 310 -179 218 0
313 310 -210 179 218 -311 0
313 310 -210 -179 -218 -311 0
-313 -310 -210 179 218 -311 0
-313 -310 -210 -179 -218 -311 0
315 210 -179 0
315 -210 179 0
-315 210 179 0
-315 -210 -179 0
314 218 -311 0
314 -218 311 0
-314 218 311 0
-314 -218 -311 0
316 -313 241 0
316 -313 314 0
-316 313 241 0
-316 313 314 0
316 -313 210 -249 0
316 -313 -210 249 0
-316 313 210 -249 0
-316 313 -210 249 0
316 313 -241 210 249 -314 0
316 313 -241 -210 -249 -314 0
-316 -313 -241 210 249 -314 0
-316 -313 -241 -210 -249 -314 0
318 241 -210 0
318 -241 210 0
-318 241 210 0
-318 -241 -210 0
317 249 -314 0
317 -249 314 0
-317 249 314 0
-317 -249 -314 0
319 -316 272 0
319 -316 317 0
-319 316 272 0
-319 316 317 0
319 -316 241 -280 0
319 -316 -241 280 0
-319 316 241 -280 0
-319 316 -241 280 0
319 316 -272 241 280 -317 0
319 316 -272 -241 -280 -317 0
-319 -316 -272 241 280 -317 0
-319 -316 -272 -241 -280 -317 0
321 272 -241 0
321 -272 241 0
-321 272 241 0
-321 -272 -241 0
320 280 -317 0
320 -280 317 0
-320 280 317 0
-320 -280 -317 0
322 -319 303 0
322 -319 320 0
-322 319 303 0
-322 319 320 0
322 -319 272 -307 0
322 -319 -272 307 0
-322 319 272 -307 0
-322 319 -272 307 0
322 319 -303 272 307 -320 0
322 319 -303 -272 -307 -320 0
-322 -319 -303 272 307 -320 0
-322 -319 -303 -272 -307 -320 0
324 303 -272 0
324 -303 272 0
-324 303 272 0
-324 -303 -272 0
323 307 -320 0
323 -307 320 0
-323 307 320 0
-323 -307 -320 0
-303 0
-324 0
-320 0
-321 0
-317 0
-318 0
-314 0
-315 0
-311 0
-312 0
-156 0
